benchmarks_CP/INST_36x36/30/inst36x36_30_94.dzn
S=6;
start=[|
33,	-1,	-1,	-1,	7,	-1,	8,	2,	-1,	17,	18,	-1,	27,	-1,	-1,	26,	9,	25,	-1,	32,	-1,	-1,	-1,	-1,	-1,	-1,	10,	-1,	-1,	-1,	21,	-1,	-1,	-1,	-1,	-1|
-1,	-1,	-1,	-1,	-1,	-1,	-1,	-1,	-1,	34,	-1,	6,	14,	-1,	20,	-1,	-1,	-1,	-1,	13,	-1,	-1,	10,	-1,	4,	-1,	1,	17,	-1,	-1,	24,	-1,	18,	-1,	7,	-1|
-1,	36,	18,	-1,	-1,	-1,	-1,	-1,	31,	33,	-1,	-1,	-1,	-1,	16,	-1,	12,	-1,	-1,	-1,	11,	28,	-1,	-1,	-1,	5,	13,	-1,	-1,	-1,	-1,	-1,	1,	-1,	-1,	-1|
-1,	-1,	12,	-1,	-1,	10,	-1,	-1,	-1,	26,	-1,	-1,	-1,	13,	-1,	-1,	-1,	-1,	-1,	-1,	-1,	-1,	18,	-1,	-1,	-1,	-1,	-1,	11,	-1,	-1,	-1,	-1,	-1,	-1,	-1|
-1,	-1,	-1,	-1,	21,	-1,	15,	-1,	-1,	-1,	-1,	-1,	-1,	-1,	24,	32,	-1,	18,	8,	-1,	-1,	-1,	-1,	-1,	-1,	-1,	-1,	-1,	-1,	-1,	-1,	-1,	12,	6,	-1,	-1|
17,	-1,	-1,	-1,	-1,	32,	-1,	27,	7,	-1,	14,	-1,	4,	-1,	10,	-1,	-1,	-1,	5,	29,	-1,	-1,	-1,	-1,	18,	-1,	-1,	-1,	-1,	-1,	-1,	-1,	-1,	-1,	-1,	-1|
-1,	3,	-1,	7,	-1,	-1,	-1,	13,	-1,	-1,	30,	-1,	-1,	-1,	-1,	-1,	-1,	-1,	12,	-1,	22,	-1,	27,	28,	-1,	31,	-1,	-1,	5,	14,	-1,	-1,	-1,	-1,	-1,	1|
-1,	-1,	-1,	4,	-1,	13,	-1,	-1,	-1,	-1,	9,	-1,	-1,	-1,	-1,	31,	20,	-1,	-1,	-1,	14,	30,	-1,	8,	-1,	-1,	12,	24,	-1,	-1,	-1,	-1,	-1,	-1,	23,	-1|
-1,	-1,	17,	10,	8,	-1,	-1,	-1,	-1,	-1,	12,	-1,	-1,	-1,	-1,	-1,	16,	-1,	-1,	-1,	32,	-1,	-1,	-1,	-1,	-1,	-1,	-1,	-1,	-1,	35,	-1,	24,	-1,	-1,	-1|
-1,	25,	-1,	2,	-1,	-1,	29,	-1,	-1,	-1,	-1,	-1,	5,	-1,	-1,	11,	-1,	-1,	-1,	35,	19,	31,	-1,	-1,	-1,	-1,	-1,	21,	-1,	-1,	-1,	-1,	-1,	-1,	34,	22|
26,	-1,	-1,	-1,	-1,	21,	24,	-1,	19,	-1,	-1,	-1,	-1,	-1,	-1,	-1,	-1,	-1,	-1,	33,	-1,	-1,	-1,	-1,	-1,	-1,	-1,	-1,	-1,	8,	-1,	13,	11,	-1,	-1,	-1|
-1,	-1,	-1,	-1,	-1,	12,	20,	-1,	-1,	16,	-1,	-1,	21,	35,	-1,	14,	-1,	-1,	-1,	-1,	-1,	15,	-1,	-1,	-1,	-1,	-1,	13,	9,	-1,	-1,	-1,	-1,	-1,	-1,	-1|
-1,	-1,	-1,	3,	4,	-1,	11,	-1,	-1,	31,	26,	25,	-1,	-1,	-1,	-1,	-1,	-1,	-1,	-1,	-1,	13,	20,	-1,	-1,	-1,	-1,	-1,	-1,	32,	-1,	-1,	-1,	-1,	-1,	-1|
-1,	9,	7,	-1,	-1,	-1,	-1,	-1,	12,	19,	-1,	-1,	-1,	-1,	-1,	3,	-1,	29,	-1,	-1,	-1,	-1,	17,	-1,	27,	-1,	-1,	2,	-1,	-1,	34,	-1,	13,	1,	26,	-1|
-1,	-1,	-1,	-1,	-1,	-1,	27,	20,	-1,	36,	-1,	14,	-1,	-1,	21,	9,	-1,	-1,	-1,	-1,	-1,	32,	-1,	-1,	-1,	-1,	6,	-1,	-1,	10,	16,	-1,	19,	-1,	3,	15|
-1,	35,	-1,	-1,	-1,	-1,	-1,	-1,	-1,	2,	-1,	-1,	-1,	-1,	-1,	-1,	13,	-1,	-1,	-1,	23,	12,	19,	-1,	25,	-1,	31,	-1,	17,	-1,	7,	-1,	-1,	-1,	-1,	-1|
-1,	-1,	-1,	-1,	-1,	-1,	-1,	7,	9,	-1,	21,	-1,	1,	-1,	25,	-1,	-1,	-1,	-1,	-1,	-1,	22,	-1,	-1,	-1,	-1,	-1,	36,	-1,	-1,	-1,	-1,	-1,	-1,	-1,	-1|
-1,	-1,	-1,	15,	-1,	-1,	32,	-1,	17,	-1,	-1,	-1,	-1,	-1,	-1,	7,	-1,	-1,	3,	-1,	-1,	-1,	11,	1,	-1,	-1,	-1,	-1,	28,	35,	-1,	-1,	-1,	-1,	21,	-1|
30,	26,	-1,	-1,	2,	-1,	-1,	-1,	27,	-1,	-1,	17,	-1,	-1,	11,	16,	-1,	3,	28,	12,	18,	-1,	32,	-1,	-1,	4,	22,	-1,	33,	-1,	23,	-1,	34,	-1,	36,	-1|
-1,	15,	-1,	-1,	-1,	-1,	-1,	-1,	-1,	25,	-1,	18,	-1,	4,	22,	30,	-1,	-1,	-1,	-1,	-1,	34,	-1,	-1,	36,	-1,	-1,	-1,	14,	-1,	-1,	-1,	-1,	-1,	-1,	-1|
-1,	-1,	-1,	21,	35,	-1,	-1,	14,	3,	-1,	-1,	-1,	-1,	-1,	-1,	-1,	-1,	26,	24,	-1,	-1,	6,	16,	-1,	30,	-1,	-1,	29,	-1,	-1,	1,	15,	27,	4,	-1,	-1|
-1,	-1,	-1,	-1,	-1,	4,	-1,	-1,	-1,	28,	-1,	26,	29,	-1,	36,	10,	-1,	34,	-1,	-1,	-1,	-1,	-1,	-1,	-1,	-1,	-1,	11,	21,	20,	-1,	17,	-1,	-1,	-1,	13|
-1,	-1,	-1,	-1,	-1,	-1,	36,	1,	-1,	-1,	-1,	-1,	-1,	-1,	-1,	-1,	-1,	-1,	-1,	-1,	-1,	-1,	-1,	-1,	-1,	-1,	-1,	3,	35,	6,	11,	-1,	-1,	14,	-1,	-1|
-1,	13,	-1,	-1,	17,	36,	34,	-1,	-1,	-1,	-1,	-1,	-1,	-1,	-1,	-1,	21,	-1,	-1,	-1,	-1,	14,	-1,	-1,	-1,	-1,	-1,	16,	-1,	-1,	22,	25,	9,	-1,	-1,	-1|
-1,	4,	11,	-1,	-1,	-1,	14,	-1,	-1,	-1,	-1,	-1,	-1,	12,	-1,	-1,	-1,	-1,	30,	-1,	-1,	-1,	6,	-1,	-1,	32,	34,	-1,	-1,	-1,	-1,	-1,	-1,	28,	5,	-1|
-1,	6,	2,	5,	19,	1,	33,	-1,	-1,	12,	-1,	-1,	-1,	-1,	-1,	27,	-1,	28,	9,	-1,	13,	-1,	34,	3,	31,	20,	-1,	-1,	-1,	-1,	14,	-1,	36,	-1,	-1,	11|
-1,	22,	-1,	9,	-1,	8,	-1,	-1,	-1,	4,	-1,	34,	-1,	-1,	35,	-1,	-1,	-1,	-1,	-1,	-1,	-1,	-1,	-1,	12,	-1,	-1,	27,	-1,	-1,	-1,	-1,	26,	-1,	-1,	-1|
15,	-1,	14,	-1,	-1,	-1,	-1,	-1,	13,	-1,	-1,	-1,	-1,	36,	33,	22,	25,	-1,	-1,	17,	35,	-1,	-1,	-1,	9,	-1,	-1,	26,	2,	16,	-1,	-1,	31,	18,	-1,	-1|
-1,	24,	-1,	-1,	32,	-1,	-1,	-1,	-1,	-1,	-1,	-1,	7,	-1,	-1,	18,	-1,	-1,	-1,	2,	-1,	4,	5,	-1,	-1,	-1,	-1,	-1,	6,	19,	29,	-1,	-1,	-1,	13,	-1|
-1,	-1,	-1,	-1,	-1,	17,	-1,	-1,	-1,	-1,	-1,	-1,	-1,	34,	-1,	-1,	-1,	-1,	-1,	-1,	26,	36,	-1,	-1,	-1,	24,	-1,	25,	-1,	-1,	20,	-1,	-1,	8,	-1,	-1|
2,	8,	32,	-1,	-1,	16,	26,	33,	-1,	-1,	-1,	-1,	15,	-1,	-1,	-1,	-1,	-1,	23,	-1,	-1,	27,	-1,	-1,	17,	-1,	9,	-1,	13,	-1,	-1,	-1,	-1,	19,	24,	-1|
-1,	-1,	-1,	-1,	-1,	-1,	25,	-1,	-1,	20,	-1,	-1,	-1,	-1,	-1,	12,	-1,	-1,	-1,	-1,	-1,	-1,	-1,	-1,	35,	-1,	26,	1,	31,	-1,	17,	8,	3,	-1,	-1,	-1|
3,	-1,	-1,	17,	22,	-1,	-1,	-1,	2,	-1,	-1,	-1,	-1,	-1,	34,	-1,	-1,	33,	-1,	-1,	-1,	11,	-1,	26,	-1,	6,	-1,	20,	-1,	-1,	-1,	23,	-1,	31,	35,	-1|
-1,	-1,	-1,	1,	34,	31,	-1,	-1,	-1,	-1,	-1,	-1,	-1,	-1,	6,	-1,	-1,	-1,	-1,	28,	20,	-1,	3,	21,	-1,	23,	14,	-1,	16,	-1,	-1,	30,	-1,	33,	15,	-1|
-1,	-1,	-1,	11,	-1,	-1,	-1,	-1,	-1,	-1,	-1,	-1,	-1,	-1,	7,	21,	-1,	-1,	10,	8,	-1,	1,	-1,	-1,	-1,	-1,	3,	-1,	-1,	30,	-1,	-1,	-1,	-1,	32,	16|
-1,	-1,	-1,	-1,	-1,	-1,	-1,	-1,	-1,	-1,	-1,	-1,	-1,	-1,	-1,	-1,	18,	-1,	-1,	-1,	33,	-1,	15,	17,	-1,	-1,	-1,	32,	-1,	-1,	-1,	-1,	-1,	-1,	-1,	-1|];
